BAYES
212
2 2 2 2 2 2 2 2 3 2 2 2 2 2 2 2 2 2 2 2 2 2 2 2 3 2 2 2 2 2 2 2 2 2 2 2 2 2 2 2 3 2 2 2 2 2 2 2 2 2 2 2 2 2 2 2 3 2 2 2 2 2 2 2 2 2 2 2 2 2 2 2 3 2 2 2 2 2 2 2 2 2 2 2 2 2 2 2 3 2 2 2 2 2 2 2 2 2 2 2 2 2 2 2 3 2 2 2 2 2 2 2 2 2 2 2 2 2 2 2 3 2 2 2 2 2 2 2 2 2 2 2 2 2 2 2 3 2 2 2 2 2 2 2 2 2 2 2 2 2 2 2 3 2 2 2 2 2 2 2 2 2 2 2 2 2 2 2 3 2 2 2 2 2 2 2 2 2 2 2 2 2 2 2 3 2 2 2 2 2 2 2 2 2 2 2 2 2 2 2 3 2 2 2 2 2 2 2 2 2 2 2 
212
1	0
1	1
1	2
1	3
1	4
1	5
1	6
2	0	7
2	2	8
2	1	9
2	7	10
2	8	11
2	9	12
2	9	13
3	0	1	14
3	2	14	15
3	10	3	16
3	11	4	17
3	12	5	18
3	13	6	19
1	20
1	21
1	22
2	20	23
2	22	24
2	21	25
2	23	26
2	24	27
2	25	28
2	25	29
3	20	21	30
3	22	30	31
3	26	16	32
3	27	17	33
3	28	18	34
3	29	19	35
1	36
1	37
1	38
2	36	39
2	38	40
2	37	41
2	39	42
2	40	43
2	41	44
2	41	45
3	36	37	46
3	38	46	47
3	42	32	48
3	43	33	49
3	44	34	50
3	45	35	51
1	52
1	53
1	54
2	52	55
2	54	56
2	53	57
2	55	58
2	56	59
2	57	60
2	57	61
3	52	53	62
3	54	62	63
3	58	48	64
3	59	49	65
3	60	50	66
3	61	51	67
1	68
1	69
1	70
2	68	71
2	70	72
2	69	73
2	71	74
2	72	75
2	73	76
2	73	77
3	68	69	78
3	70	78	79
3	74	64	80
3	75	65	81
3	76	66	82
3	77	67	83
1	84
1	85
1	86
2	84	87
2	86	88
2	85	89
2	87	90
2	88	91
2	89	92
2	89	93
3	84	85	94
3	86	94	95
3	90	80	96
3	91	81	97
3	92	82	98
3	93	83	99
1	100
1	101
1	102
2	100	103
2	102	104
2	101	105
2	103	106
2	104	107
2	105	108
2	105	109
3	100	101	110
3	102	110	111
3	106	96	112
3	107	97	113
3	108	98	114
3	109	99	115
1	116
1	117
1	118
2	116	119
2	118	120
2	117	121
2	119	122
2	120	123
2	121	124
2	121	125
3	116	117	126
3	118	126	127
3	122	112	128
3	123	113	129
3	124	114	130
3	125	115	131
1	132
1	133
1	134
2	132	135
2	134	136
2	133	137
2	135	138
2	136	139
2	137	140
2	137	141
3	132	133	142
3	134	142	143
3	138	128	144
3	139	129	145
3	140	130	146
3	141	131	147
1	148
1	149
1	150
2	148	151
2	150	152
2	149	153
2	151	154
2	152	155
2	153	156
2	153	157
3	148	149	158
3	150	158	159
3	154	144	160
3	155	145	161
3	156	146	162
3	157	147	163
1	164
1	165
1	166
2	164	167
2	166	168
2	165	169
2	167	170
2	168	171
2	169	172
2	169	173
3	164	165	174
3	166	174	175
3	170	160	176
3	171	161	177
3	172	162	178
3	173	163	179
1	180
1	181
1	182
2	180	183
2	182	184
2	181	185
2	183	186
2	184	187
2	185	188
2	185	189
3	180	181	190
3	182	190	191
3	186	176	192
3	187	177	193
3	188	178	194
3	189	179	195
1	196
1	197
1	198
2	196	199
2	198	200
2	197	201
2	199	202
2	200	203
2	201	204
2	201	205
3	196	197	206
3	198	206	207
3	202	192	208
3	203	193	209
3	204	194	210
3	205	195	211

2
 1.0 1.0

2
 1.0 1.0

2
 1.0 1.0

2
 1.0 0.0

2
 0.30000000000000004 0.7

2
 0.0 1.0

2
 1.0 0.0

4
 1.0 0.0
 0.0 1.0

6
 1.0 0.0 0.0
 0.0 0.8 0.19999999999999996

4
 1.0 0.0
 0.0 1.0

4
 1.0 0.0
 0.0 1.0

6
 1.0 0.0
 0.0 1.0
 1.0 0.0

4
 1.0 0.0
 0.0 1.0

4
 1.0 0.0
 0.0 1.0

8
 1.0 0.0
 0.0 1.0
 0.0 1.0
 0.0 0.0

8
 0.0 0.0
 0.0 1.0
 0.0 1.0
 0.0 0.0

8
 1.0 0.0
 0.0 1.0
 0.0 1.0
 0.0 1.0

8
 1.0 0.0
 0.0 1.0
 0.0 1.0
 0.0 1.0

8
 1.0 0.0
 0.0 1.0
 1.0 0.0
 1.0 0.0

8
 1.0 0.0
 0.0 1.0
 0.0 1.0
 0.0 1.0

2
 1.0 1.0

2
 1.0 1.0

2
 1.0 1.0

4
 1.0 0.0
 0.0 1.0

6
 1.0 0.0 0.0
 0.0 0.8 0.19999999999999996

4
 1.0 0.0
 0.0 1.0

4
 1.0 0.0
 0.0 1.0

6
 1.0 0.0
 0.0 1.0
 1.0 0.0

4
 1.0 0.0
 0.0 1.0

4
 1.0 0.0
 0.0 1.0

8
 1.0 0.0
 0.0 1.0
 0.0 1.0
 0.0 0.0

8
 0.0 0.0
 0.0 1.0
 0.0 1.0
 0.0 0.0

8
 1.0 0.0
 0.0 1.0
 0.0 1.0
 0.0 1.0

8
 1.0 0.0
 0.0 1.0
 0.0 1.0
 0.0 1.0

8
 1.0 0.0
 0.0 1.0
 1.0 0.0
 1.0 0.0

8
 1.0 0.0
 0.0 1.0
 0.0 1.0
 0.0 1.0

2
 1.0 1.0

2
 1.0 1.0

2
 1.0 1.0

4
 1.0 0.0
 0.0 1.0

6
 1.0 0.0 0.0
 0.0 0.8 0.19999999999999996

4
 1.0 0.0
 0.0 1.0

4
 1.0 0.0
 0.0 1.0

6
 1.0 0.0
 0.0 1.0
 1.0 0.0

4
 1.0 0.0
 0.0 1.0

4
 1.0 0.0
 0.0 1.0

8
 1.0 0.0
 0.0 1.0
 0.0 1.0
 0.0 0.0

8
 0.0 0.0
 0.0 1.0
 0.0 1.0
 0.0 0.0

8
 1.0 0.0
 0.0 1.0
 0.0 1.0
 0.0 1.0

8
 1.0 0.0
 0.0 1.0
 0.0 1.0
 0.0 1.0

8
 1.0 0.0
 0.0 1.0
 1.0 0.0
 1.0 0.0

8
 1.0 0.0
 0.0 1.0
 0.0 1.0
 0.0 1.0

2
 1.0 1.0

2
 1.0 1.0

2
 1.0 1.0

4
 1.0 0.0
 0.0 1.0

6
 1.0 0.0 0.0
 0.0 0.8 0.19999999999999996

4
 1.0 0.0
 0.0 1.0

4
 1.0 0.0
 0.0 1.0

6
 1.0 0.0
 0.0 1.0
 1.0 0.0

4
 1.0 0.0
 0.0 1.0

4
 1.0 0.0
 0.0 1.0

8
 1.0 0.0
 0.0 1.0
 0.0 1.0
 0.0 0.0

8
 0.0 0.0
 0.0 1.0
 0.0 1.0
 0.0 0.0

8
 1.0 0.0
 0.0 1.0
 0.0 1.0
 0.0 1.0

8
 1.0 0.0
 0.0 1.0
 0.0 1.0
 0.0 1.0

8
 1.0 0.0
 0.0 1.0
 1.0 0.0
 1.0 0.0

8
 1.0 0.0
 0.0 1.0
 0.0 1.0
 0.0 1.0

2
 1.0 1.0

2
 1.0 1.0

2
 1.0 1.0

4
 1.0 0.0
 0.0 1.0

6
 1.0 0.0 0.0
 0.0 0.8 0.19999999999999996

4
 1.0 0.0
 0.0 1.0

4
 1.0 0.0
 0.0 1.0

6
 1.0 0.0
 0.0 1.0
 1.0 0.0

4
 1.0 0.0
 0.0 1.0

4
 1.0 0.0
 0.0 1.0

8
 1.0 0.0
 0.0 1.0
 0.0 1.0
 0.0 0.0

8
 0.0 0.0
 0.0 1.0
 0.0 1.0
 0.0 0.0

8
 1.0 0.0
 0.0 1.0
 0.0 1.0
 0.0 1.0

8
 1.0 0.0
 0.0 1.0
 0.0 1.0
 0.0 1.0

8
 1.0 0.0
 0.0 1.0
 1.0 0.0
 1.0 0.0

8
 1.0 0.0
 0.0 1.0
 0.0 1.0
 0.0 1.0

2
 1.0 1.0

2
 1.0 1.0

2
 1.0 1.0

4
 1.0 0.0
 0.0 1.0

6
 1.0 0.0 0.0
 0.0 0.8 0.19999999999999996

4
 1.0 0.0
 0.0 1.0

4
 1.0 0.0
 0.0 1.0

6
 1.0 0.0
 0.0 1.0
 1.0 0.0

4
 1.0 0.0
 0.0 1.0

4
 1.0 0.0
 0.0 1.0

8
 1.0 0.0
 0.0 1.0
 0.0 1.0
 0.0 0.0

8
 0.0 0.0
 0.0 1.0
 0.0 1.0
 0.0 0.0

8
 1.0 0.0
 0.0 1.0
 0.0 1.0
 0.0 1.0

8
 1.0 0.0
 0.0 1.0
 0.0 1.0
 0.0 1.0

8
 1.0 0.0
 0.0 1.0
 1.0 0.0
 1.0 0.0

8
 1.0 0.0
 0.0 1.0
 0.0 1.0
 0.0 1.0

2
 1.0 1.0

2
 1.0 1.0

2
 1.0 1.0

4
 1.0 0.0
 0.0 1.0

6
 1.0 0.0 0.0
 0.0 0.8 0.19999999999999996

4
 1.0 0.0
 0.0 1.0

4
 1.0 0.0
 0.0 1.0

6
 1.0 0.0
 0.0 1.0
 1.0 0.0

4
 1.0 0.0
 0.0 1.0

4
 1.0 0.0
 0.0 1.0

8
 1.0 0.0
 0.0 1.0
 0.0 1.0
 0.0 0.0

8
 0.0 0.0
 0.0 1.0
 0.0 1.0
 0.0 0.0

8
 1.0 0.0
 0.0 1.0
 0.0 1.0
 0.0 1.0

8
 1.0 0.0
 0.0 1.0
 0.0 1.0
 0.0 1.0

8
 1.0 0.0
 0.0 1.0
 1.0 0.0
 1.0 0.0

8
 1.0 0.0
 0.0 1.0
 0.0 1.0
 0.0 1.0

2
 1.0 1.0

2
 1.0 1.0

2
 1.0 1.0

4
 1.0 0.0
 0.0 1.0

6
 1.0 0.0 0.0
 0.0 0.8 0.19999999999999996

4
 1.0 0.0
 0.0 1.0

4
 1.0 0.0
 0.0 1.0

6
 1.0 0.0
 0.0 1.0
 1.0 0.0

4
 1.0 0.0
 0.0 1.0

4
 1.0 0.0
 0.0 1.0

8
 1.0 0.0
 0.0 1.0
 0.0 1.0
 0.0 0.0

8
 0.0 0.0
 0.0 1.0
 0.0 1.0
 0.0 0.0

8
 1.0 0.0
 0.0 1.0
 0.0 1.0
 0.0 1.0

8
 1.0 0.0
 0.0 1.0
 0.0 1.0
 0.0 1.0

8
 1.0 0.0
 0.0 1.0
 1.0 0.0
 1.0 0.0

8
 1.0 0.0
 0.0 1.0
 0.0 1.0
 0.0 1.0

2
 1.0 1.0

2
 1.0 1.0

2
 1.0 1.0

4
 1.0 0.0
 0.0 1.0

6
 1.0 0.0 0.0
 0.0 0.8 0.19999999999999996

4
 1.0 0.0
 0.0 1.0

4
 1.0 0.0
 0.0 1.0

6
 1.0 0.0
 0.0 1.0
 1.0 0.0

4
 1.0 0.0
 0.0 1.0

4
 1.0 0.0
 0.0 1.0

8
 1.0 0.0
 0.0 1.0
 0.0 1.0
 0.0 0.0

8
 0.0 0.0
 0.0 1.0
 0.0 1.0
 0.0 0.0

8
 1.0 0.0
 0.0 1.0
 0.0 1.0
 0.0 1.0

8
 1.0 0.0
 0.0 1.0
 0.0 1.0
 0.0 1.0

8
 1.0 0.0
 0.0 1.0
 1.0 0.0
 1.0 0.0

8
 1.0 0.0
 0.0 1.0
 0.0 1.0
 0.0 1.0

2
 1.0 1.0

2
 1.0 1.0

2
 1.0 1.0

4
 1.0 0.0
 0.0 1.0

6
 1.0 0.0 0.0
 0.0 0.8 0.19999999999999996

4
 1.0 0.0
 0.0 1.0

4
 1.0 0.0
 0.0 1.0

6
 1.0 0.0
 0.0 1.0
 1.0 0.0

4
 1.0 0.0
 0.0 1.0

4
 1.0 0.0
 0.0 1.0

8
 1.0 0.0
 0.0 1.0
 0.0 1.0
 0.0 0.0

8
 0.0 0.0
 0.0 1.0
 0.0 1.0
 0.0 0.0

8
 1.0 0.0
 0.0 1.0
 0.0 1.0
 0.0 1.0

8
 1.0 0.0
 0.0 1.0
 0.0 1.0
 0.0 1.0

8
 1.0 0.0
 0.0 1.0
 1.0 0.0
 1.0 0.0

8
 1.0 0.0
 0.0 1.0
 0.0 1.0
 0.0 1.0

2
 1.0 1.0

2
 1.0 1.0

2
 1.0 1.0

4
 1.0 0.0
 0.0 1.0

6
 1.0 0.0 0.0
 0.0 0.8 0.19999999999999996

4
 1.0 0.0
 0.0 1.0

4
 1.0 0.0
 0.0 1.0

6
 1.0 0.0
 0.0 1.0
 1.0 0.0

4
 1.0 0.0
 0.0 1.0

4
 1.0 0.0
 0.0 1.0

8
 1.0 0.0
 0.0 1.0
 0.0 1.0
 0.0 0.0

8
 0.0 0.0
 0.0 1.0
 0.0 1.0
 0.0 0.0

8
 1.0 0.0
 0.0 1.0
 0.0 1.0
 0.0 1.0

8
 1.0 0.0
 0.0 1.0
 0.0 1.0
 0.0 1.0

8
 1.0 0.0
 0.0 1.0
 1.0 0.0
 1.0 0.0

8
 1.0 0.0
 0.0 1.0
 0.0 1.0
 0.0 1.0

2
 1.0 1.0

2
 1.0 1.0

2
 1.0 1.0

4
 1.0 0.0
 0.0 1.0

6
 1.0 0.0 0.0
 0.0 0.8 0.19999999999999996

4
 1.0 0.0
 0.0 1.0

4
 1.0 0.0
 0.0 1.0

6
 1.0 0.0
 0.0 1.0
 1.0 0.0

4
 1.0 0.0
 0.0 1.0

4
 1.0 0.0
 0.0 1.0

8
 1.0 0.0
 0.0 1.0
 0.0 1.0
 0.0 0.0

8
 0.0 0.0
 0.0 1.0
 0.0 1.0
 0.0 0.0

8
 1.0 0.0
 0.0 1.0
 0.0 1.0
 0.0 1.0

8
 1.0 0.0
 0.0 1.0
 0.0 1.0
 0.0 1.0

8
 1.0 0.0
 0.0 1.0
 1.0 0.0
 1.0 0.0

8
 1.0 0.0
 0.0 1.0
 0.0 1.0
 0.0 1.0

2
 1.0 1.0

2
 1.0 1.0

2
 1.0 1.0

4
 1.0 0.0
 0.0 1.0

6
 1.0 0.0 0.0
 0.0 0.8 0.19999999999999996

4
 1.0 0.0
 0.0 1.0

4
 1.0 0.0
 0.0 1.0

6
 1.0 0.0
 0.0 1.0
 1.0 0.0

4
 1.0 0.0
 0.0 1.0

4
 1.0 0.0
 0.0 1.0

8
 1.0 0.0
 0.0 1.0
 0.0 1.0
 0.0 0.0

8
 0.0 0.0
 0.0 1.0
 0.0 1.0
 0.0 0.0

8
 0.0 0.0
 0.0 1.0
 0.0 1.0
 0.0 1.0

8
 1.0 0.0
 0.0 1.0
 0.0 1.0
 0.0 1.0

8
 0.0 0.0
 0.0 1.0
 0.0 0.0
 0.0 0.0

8
 0.0 0.0
 0.0 1.0
 0.0 1.0
 0.0 1.0

